n = 28;
k = 4;
roles = [
{m, d},
{d, f},
{g, f},
{d, f},
{f, m},
{d, m},
{m, f},
{m, g},
{d, m},
{d, g},
{m, g},
{g, f},
{f, d},
{f, g},
{m, f},
{g, m},
{m, g},
{f, m},
{m, d},
{m, g},
{g, d},
{g, f},
{m, d},
{f, m},
{d, m},
{g, m},
{g, d},
{f, m}
];
num_pairs = 3;
player1 = [2, 5, 6];
player2 = [24, 21, 14];
